WARNING: for repeatability, setting FPU to use double precision
============================[ Problem Statistics ]=============================
|                                                                             |
|  Number of variables:         33368                                         |
|  Number of clauses:           97515                                         |
|  Parse time:                   0.02 s                                       |
|                                                                             |
c ============================[ Search Statistics ]==============================
c | Conflicts |          ORIGINAL         |          LEARNT          | Progress |
c |           |    Vars  Clauses Literals |    Limit  Clauses Lit/Cl |          |
c ===============================================================================
We had 84 decisions of which only 0 were on extended
We had 628709 decisions of which only 0 were on extended
We had 1183044 decisions of which only 0.035079 were on extended
c Switched to VSIDS.
We had 1511707 decisions of which only 0.0398225 were on extended
We had 2037385 decisions of which only 0.0382353 were on extended
We had 2553268 decisions of which only 0.0552233 were on extended
We had 2759371 decisions of which only 0.0530556 were on extended
c Switched to LRB.
We had 2815724 decisions of which only 0.0519937 were on extended
We had 2887146 decisions of which only 0.0512271 were on extended
We had 2951886 decisions of which only 0.0502052 were on extended
We had 3016334 decisions of which only 0.0491325 were on extended
We had 3076847 decisions of which only 0.0482637 were on extended
We had 3119815 decisions of which only 0.047599 were on extended
We had 3182047 decisions of which only 0.0474852 were on extended
We had 3212526 decisions of which only 0.047128 were on extended
We had 3241450 decisions of which only 0.0467075 were on extended
c Switched to VSIDS.
We had 3290292 decisions of which only 0.0464396 were on extended
We had 3314482 decisions of which only 0.0461007 were on extended
We had 3442673 decisions of which only 0.0760165 were on extended
Window full
Continue
We had 3460343 decisions of which only 0.0759462 were on extended
We had 3472152 decisions of which only 0.0757167 were on extended
We had 3550466 decisions of which only 0.0772856 were on extended
We had 3675995 decisions of which only 0.0903701 were on extended
We had 3779843 decisions of which only 0.12109 were on extended
We had 3918301 decisions of which only 0.198989 were on extended
c Switched to LRB.
We had 3994465 decisions of which only 0.210016 were on extended
We had 4076678 decisions of which only 0.231782 were on extended
We had 4145771 decisions of which only 0.236747 were on extended
We had 4209006 decisions of which only 0.264148 were on extended
Window full
Continue
We had 4281599 decisions of which only 0.282044 were on extended
We had 4354033 decisions of which only 0.301904 were on extended
We had 4423261 decisions of which only 0.321573 were on extended
We had 4484714 decisions of which only 0.33612 were on extended
We had 4519918 decisions of which only 0.345891 were on extended
We had 4553412 decisions of which only 0.346861 were on extended
We had 4575386 decisions of which only 0.347512 were on extended
We had 4610610 decisions of which only 0.347351 were on extended
c Switched to VSIDS.
We had 4645537 decisions of which only 0.352187 were on extended
We had 4661730 decisions of which only 0.351715 were on extended
Window full
Continue
We had 4805608 decisions of which only 0.550586 were on extended
We had 4894033 decisions of which only 0.6634 were on extended
We had 4912048 decisions of which only 0.66229 were on extended
We had 4925474 decisions of which only 0.660525 were on extended
We had 4947078 decisions of which only 0.659622 were on extended
We had 4960081 decisions of which only 0.658013 were on extended
We had 4975273 decisions of which only 0.656326 were on extended
We had 5000691 decisions of which only 0.695544 were on extended
We had 5022796 decisions of which only 0.694772 were on extended
We had 5054979 decisions of which only 0.696304 were on extended
c Switched to LRB.
Window full
Continue
We had 5096705 decisions of which only 0.724919 were on extended
We had 5153480 decisions of which only 0.737832 were on extended
We had 5205248 decisions of which only 0.761059 were on extended
We had 5245837 decisions of which only 0.776501 were on extended
We had 5277125 decisions of which only 0.781808 were on extended
We had 5303929 decisions of which only 0.785663 were on extended
We had 5318859 decisions of which only 0.7853 were on extended
We had 5330670 decisions of which only 0.78356 were on extended
We had 5342485 decisions of which only 0.782014 were on extended
We had 5353823 decisions of which only 0.78047 were on extended
Window full
Continue
We had 5365227 decisions of which only 0.778811 were on extended
We had 5376753 decisions of which only 0.77809 were on extended
We had 5388100 decisions of which only 0.77647 were on extended
We had 5399639 decisions of which only 0.774811 were on extended
We had 5410935 decisions of which only 0.773323 were on extended
We had 5422283 decisions of which only 0.771907 were on extended
We had 5433746 decisions of which only 0.770279 were on extended
c Switched to VSIDS.
We had 5450981 decisions of which only 0.768944 were on extended
We had 5463299 decisions of which only 0.767229 were on extended
We had 5479903 decisions of which only 0.765014 were on extended
Window full
Deactivate
We had 5495460 decisions of which only 0.762866 were on extended
We had 5508272 decisions of which only 0.761564 were on extended
We had 5523700 decisions of which only 0.759744 were on extended
We had 5538134 decisions of which only 0.757873 were on extended
We had 5552049 decisions of which only 0.756099 were on extended
We had 5567844 decisions of which only 0.75417 were on extended
We had 5583324 decisions of which only 0.752168 were on extended
We had 5600199 decisions of which only 0.750009 were on extended
We had 5616546 decisions of which only 0.747933 were on extended
We had 5632354 decisions of which only 0.746136 were on extended
c Switched to LRB.
We had 5649659 decisions of which only 0.745549 were on extended
We had 5667338 decisions of which only 0.743259 were on extended
We had 5682003 decisions of which only 0.741552 were on extended
We had 5698294 decisions of which only 0.73952 were on extended
We had 5716026 decisions of which only 0.737418 were on extended
We had 5730566 decisions of which only 0.735669 were on extended
We had 5745794 decisions of which only 0.733719 were on extended
We had 5763060 decisions of which only 0.731538 were on extended
We had 5777332 decisions of which only 0.730476 were on extended
We had 5793545 decisions of which only 0.7285 were on extended
We had 5805783 decisions of which only 0.726965 were on extended
c Switched to VSIDS.
We had 5817923 decisions of which only 0.725448 were on extended
We had 5830753 decisions of which only 0.723869 were on extended
We had 5844087 decisions of which only 0.722234 were on extended
We had 5859693 decisions of which only 0.720396 were on extended
We had 5876931 decisions of which only 0.718419 were on extended
We had 5890305 decisions of which only 0.716805 were on extended
We had 5902652 decisions of which only 0.715306 were on extended
We had 5916172 decisions of which only 0.713772 were on extended
We had 5930594 decisions of which only 0.712256 were on extended
We had 5944203 decisions of which only 0.710709 were on extended
We had 5958715 decisions of which only 0.709012 were on extended
We had 5974476 decisions of which only 0.707275 were on extended
We had 5986880 decisions of which only 0.705843 were on extended
We had 6000741 decisions of which only 0.70423 were on extended
We had 6013841 decisions of which only 0.702879 were on extended
c Switched to LRB.
We had 6030808 decisions of which only 0.702791 were on extended
We had 6045391 decisions of which only 0.701096 were on extended
We had 6061123 decisions of which only 0.699491 were on extended
We had 6080739 decisions of which only 0.697415 were on extended
We had 6095792 decisions of which only 0.697235 were on extended
We had 6114993 decisions of which only 0.695062 were on extended
We had 6132287 decisions of which only 0.693216 were on extended
We had 6147602 decisions of which only 0.691538 were on extended
We had 6161937 decisions of which only 0.689994 were on extended
We had 6176379 decisions of which only 0.68864 were on extended
c Switched to VSIDS.
We had 6190388 decisions of which only 0.687162 were on extended
We had 6205497 decisions of which only 0.685634 were on extended
We had 6220941 decisions of which only 0.684077 were on extended
We had 6234538 decisions of which only 0.682761 were on extended
We had 6248749 decisions of which only 0.681256 were on extended
We had 6261867 decisions of which only 0.679957 were on extended
We had 6276784 decisions of which only 0.67858 were on extended
We had 6291010 decisions of which only 0.677141 were on extended
We had 6306033 decisions of which only 0.675829 were on extended
We had 6320188 decisions of which only 0.674489 were on extended
We had 6335126 decisions of which only 0.673215 were on extended
We had 6348521 decisions of which only 0.671905 were on extended
We had 6362011 decisions of which only 0.670574 were on extended
We had 6376361 decisions of which only 0.669096 were on extended
We had 6389649 decisions of which only 0.667752 were on extended
We had 6402355 decisions of which only 0.66652 were on extended
c Switched to LRB.
We had 6417779 decisions of which only 0.666118 were on extended
We had 6434535 decisions of which only 0.664384 were on extended
We had 6450602 decisions of which only 0.662729 were on extended
We had 6466394 decisions of which only 0.66111 were on extended
We had 6479357 decisions of which only 0.659819 were on extended
We had 6494995 decisions of which only 0.658291 were on extended
We had 6509386 decisions of which only 0.656836 were on extended
We had 6524895 decisions of which only 0.655321 were on extended
We had 6538687 decisions of which only 0.653985 were on extended
We had 6553244 decisions of which only 0.652593 were on extended
We had 6569038 decisions of which only 0.6511 were on extended
We had 6583644 decisions of which only 0.649777 were on extended
We had 6597708 decisions of which only 0.648422 were on extended
c Switched to VSIDS.
We had 6610546 decisions of which only 0.647269 were on extended
We had 6622998 decisions of which only 0.646309 were on extended
We had 6636718 decisions of which only 0.644987 were on extended
We had 6650964 decisions of which only 0.643982 were on extended
We had 6665730 decisions of which only 0.64278 were on extended
We had 6678481 decisions of which only 0.641688 were on extended
We had 6692779 decisions of which only 0.640496 were on extended
We had 6704847 decisions of which only 0.639373 were on extended
We had 6718074 decisions of which only 0.638204 were on extended
We had 6733745 decisions of which only 0.636748 were on extended
We had 6748772 decisions of which only 0.635508 were on extended
We had 6762280 decisions of which only 0.634298 were on extended
We had 6776122 decisions of which only 0.633179 were on extended
We had 6789860 decisions of which only 0.631942 were on extended
We had 6804110 decisions of which only 0.630736 were on extended
We had 6818430 decisions of which only 0.629588 were on extended
We had 6831497 decisions of which only 0.628384 were on extended
c Switched to LRB.
We had 6846288 decisions of which only 0.62856 were on extended
We had 6861385 decisions of which only 0.627628 were on extended
We had 6874790 decisions of which only 0.626812 were on extended
We had 6890164 decisions of which only 0.625602 were on extended
We had 6903018 decisions of which only 0.626784 were on extended
We had 6916063 decisions of which only 0.625761 were on extended
We had 6929462 decisions of which only 0.62458 were on extended
We had 6944072 decisions of which only 0.623309 were on extended
We had 6957696 decisions of which only 0.622088 were on extended
We had 6969790 decisions of which only 0.621023 were on extended
We had 6982756 decisions of which only 0.61987 were on extended
We had 6996292 decisions of which only 0.618799 were on extended
We had 7009287 decisions of which only 0.617695 were on extended
We had 7022976 decisions of which only 0.616548 were on extended
We had 7036063 decisions of which only 0.616438 were on extended
We had 7049799 decisions of which only 0.61545 were on extended
We had 7063068 decisions of which only 0.614436 were on extended
c Switched to VSIDS.
We had 7075850 decisions of which only 0.613425 were on extended
We had 7090158 decisions of which only 0.612271 were on extended
We had 7103856 decisions of which only 0.611203 were on extended
We had 7117148 decisions of which only 0.610118 were on extended
We had 7131811 decisions of which only 0.60892 were on extended
We had 7144818 decisions of which only 0.607937 were on extended
We had 7157784 decisions of which only 0.606892 were on extended
We had 7170641 decisions of which only 0.605859 were on extended
We had 7182492 decisions of which only 0.60486 were on extended
We had 7196261 decisions of which only 0.603897 were on extended
We had 7210571 decisions of which only 0.602754 were on extended
We had 7223545 decisions of which only 0.601741 were on extended
We had 7239760 decisions of which only 0.60049 were on extended
We had 7254045 decisions of which only 0.599486 were on extended
We had 7267669 decisions of which only 0.598431 were on extended
We had 7281906 decisions of which only 0.597344 were on extended
We had 7296135 decisions of which only 0.596329 were on extended
We had 7310542 decisions of which only 0.595236 were on extended
We had 7324253 decisions of which only 0.594177 were on extended
We had 7338188 decisions of which only 0.593185 were on extended
We had 7353653 decisions of which only 0.591991 were on extended
c Switched to LRB.
We had 7369137 decisions of which only 0.592349 were on extended
We had 7383380 decisions of which only 0.591477 were on extended
We had 7395495 decisions of which only 0.590508 were on extended
We had 7408190 decisions of which only 0.589618 were on extended
We had 7421132 decisions of which only 0.588657 were on extended
We had 7433806 decisions of which only 0.587653 were on extended
We had 7447397 decisions of which only 0.586715 were on extended
We had 7461469 decisions of which only 0.585743 were on extended
We had 7474505 decisions of which only 0.584815 were on extended
We had 7487649 decisions of which only 0.583935 were on extended
We had 7501604 decisions of which only 0.582902 were on extended
We had 7515196 decisions of which only 0.581861 were on extended
We had 7527485 decisions of which only 0.580938 were on extended
We had 7540615 decisions of which only 0.579939 were on extended
We had 7552539 decisions of which only 0.579024 were on extended
We had 7564804 decisions of which only 0.578098 were on extended
We had 7577208 decisions of which only 0.577178 were on extended
We had 7589584 decisions of which only 0.57625 were on extended
We had 7601646 decisions of which only 0.575336 were on extended
We had 7614102 decisions of which only 0.574408 were on extended
We had 7626737 decisions of which only 0.573522 were on extended
c Switched to VSIDS.
We had 7638979 decisions of which only 0.572616 were on extended
We had 7652641 decisions of which only 0.571724 were on extended
We had 7665594 decisions of which only 0.570902 were on extended
We had 7679316 decisions of which only 0.570012 were on extended
We had 7692098 decisions of which only 0.569156 were on extended
We had 7706932 decisions of which only 0.568242 were on extended
We had 7721967 decisions of which only 0.567265 were on extended
We had 7735825 decisions of which only 0.5663 were on extended
We had 7748940 decisions of which only 0.565355 were on extended
We had 7762395 decisions of which only 0.564426 were on extended
We had 7776126 decisions of which only 0.563661 were on extended
We had 7789938 decisions of which only 0.562662 were on extended
We had 7802850 decisions of which only 0.561808 were on extended
We had 7816015 decisions of which only 0.560887 were on extended
We had 7830148 decisions of which only 0.560079 were on extended
We had 7844812 decisions of which only 0.559032 were on extended
We had 7857822 decisions of which only 0.558132 were on extended
We had 7872833 decisions of which only 0.557195 were on extended
We had 7887198 decisions of which only 0.556269 were on extended
We had 7902421 decisions of which only 0.555323 were on extended
We had 7917254 decisions of which only 0.554409 were on extended
We had 7931035 decisions of which only 0.553484 were on extended
We had 7945897 decisions of which only 0.552499 were on extended
We had 7961122 decisions of which only 0.551493 were on extended
We had 7973738 decisions of which only 0.550645 were on extended
c Switched to LRB.
We had 7987811 decisions of which only 0.551302 were on extended
We had 8001617 decisions of which only 0.550351 were on extended
We had 8015893 decisions of which only 0.549371 were on extended
We had 8029049 decisions of which only 0.548471 were on extended
We had 8041842 decisions of which only 0.547773 were on extended
We had 8054872 decisions of which only 0.546899 were on extended
We had 8067089 decisions of which only 0.546182 were on extended
We had 8079393 decisions of which only 0.5454 were on extended
We had 8090939 decisions of which only 0.544634 were on extended
We had 8103063 decisions of which only 0.543893 were on extended
We had 8116320 decisions of which only 0.543054 were on extended
We had 8128825 decisions of which only 0.542243 were on extended
We had 8141233 decisions of which only 0.541417 were on extended
We had 8153692 decisions of which only 0.540614 were on extended
We had 8165553 decisions of which only 0.539829 were on extended
We had 8178311 decisions of which only 0.538999 were on extended
We had 8191030 decisions of which only 0.538186 were on extended
We had 8203497 decisions of which only 0.537429 were on extended
We had 8215333 decisions of which only 0.536667 were on extended
We had 8226866 decisions of which only 0.53617 were on extended
We had 8238603 decisions of which only 0.53554 were on extended
We had 8250580 decisions of which only 0.53492 were on extended
We had 8262367 decisions of which only 0.534363 were on extended
We had 8275476 decisions of which only 0.533649 were on extended
We had 8288989 decisions of which only 0.532839 were on extended
We had 8301582 decisions of which only 0.532067 were on extended
We had 8314376 decisions of which only 0.531249 were on extended
c Switched to VSIDS.
We had 8326379 decisions of which only 0.531203 were on extended
We had 8339973 decisions of which only 0.530469 were on extended
We had 8353270 decisions of which only 0.529649 were on extended
We had 8368788 decisions of which only 0.528894 were on extended
We had 8383456 decisions of which only 0.528326 were on extended
We had 8397797 decisions of which only 0.527484 were on extended
We had 8411219 decisions of which only 0.526654 were on extended
We had 8424748 decisions of which only 0.525962 were on extended
We had 8439320 decisions of which only 0.525149 were on extended
We had 8453948 decisions of which only 0.524347 were on extended
We had 8467372 decisions of which only 0.523645 were on extended
We had 8481280 decisions of which only 0.522834 were on extended
We had 8496370 decisions of which only 0.522023 were on extended
We had 8510599 decisions of which only 0.521232 were on extended
We had 8525624 decisions of which only 0.520431 were on extended
We had 8541218 decisions of which only 0.519575 were on extended
We had 8555766 decisions of which only 0.518703 were on extended
We had 8569210 decisions of which only 0.517889 were on extended
We had 8582276 decisions of which only 0.51724 were on extended
We had 8597093 decisions of which only 0.516675 were on extended
We had 8611479 decisions of which only 0.515835 were on extended
We had 8625965 decisions of which only 0.515142 were on extended
We had 8641641 decisions of which only 0.51437 were on extended
We had 8656608 decisions of which only 0.513608 were on extended
We had 8672118 decisions of which only 0.512827 were on extended
c Switched to LRB.
We had 8687045 decisions of which only 0.513569 were on extended
We had 8700424 decisions of which only 0.51278 were on extended
We had 8714388 decisions of which only 0.511958 were on extended
We had 8727475 decisions of which only 0.511225 were on extended
We had 8739209 decisions of which only 0.510767 were on extended
We had 8751051 decisions of which only 0.510133 were on extended
We had 8763223 decisions of which only 0.509573 were on extended
We had 8776269 decisions of which only 0.508906 were on extended
We had 8789459 decisions of which only 0.508143 were on extended
We had 8802287 decisions of which only 0.507402 were on extended
We had 8815347 decisions of which only 0.506662 were on extended
We had 8828257 decisions of which only 0.505932 were on extended
We had 8840611 decisions of which only 0.505248 were on extended
We had 8853751 decisions of which only 0.504532 were on extended
We had 8866472 decisions of which only 0.503842 were on extended
We had 8878488 decisions of which only 0.503261 were on extended
We had 8890583 decisions of which only 0.502599 were on extended
We had 8902628 decisions of which only 0.502166 were on extended
We had 8914666 decisions of which only 0.501634 were on extended
We had 8926367 decisions of which only 0.501301 were on extended
We had 8937879 decisions of which only 0.500801 were on extended
We had 8949118 decisions of which only 0.500608 were on extended
We had 8961067 decisions of which only 0.500231 were on extended
We had 8973414 decisions of which only 0.499553 were on extended
We had 8986586 decisions of which only 0.499188 were on extended
We had 8998636 decisions of which only 0.498542 were on extended
c Switched to VSIDS.
We had 9013438 decisions of which only 0.497846 were on extended
We had 9028733 decisions of which only 0.497168 were on extended
We had 9042575 decisions of which only 0.496452 were on extended
We had 9057308 decisions of which only 0.495743 were on extended
We had 9070890 decisions of which only 0.495045 were on extended
We had 9085013 decisions of which only 0.494386 were on extended
We had 9098767 decisions of which only 0.493671 were on extended
We had 9113229 decisions of which only 0.493085 were on extended
We had 9127939 decisions of which only 0.49251 were on extended
We had 9141525 decisions of which only 0.491833 were on extended
We had 9154797 decisions of which only 0.491152 were on extended
We had 9169743 decisions of which only 0.490515 were on extended
We had 9184624 decisions of which only 0.489764 were on extended
We had 9198008 decisions of which only 0.489117 were on extended
We had 9212074 decisions of which only 0.488435 were on extended
We had 9226614 decisions of which only 0.487709 were on extended
We had 9240709 decisions of which only 0.486997 were on extended
We had 9254900 decisions of which only 0.486348 were on extended
We had 9269677 decisions of which only 0.48567 were on extended
We had 9283728 decisions of which only 0.484956 were on extended
We had 9298231 decisions of which only 0.484275 were on extended
We had 9311239 decisions of which only 0.483663 were on extended
We had 9324833 decisions of which only 0.483022 were on extended
We had 9339627 decisions of which only 0.482278 were on extended
We had 9353688 decisions of which only 0.481682 were on extended
We had 9367846 decisions of which only 0.48106 were on extended
We had 9381434 decisions of which only 0.480406 were on extended
c Switched to LRB.
We had 9397142 decisions of which only 0.48088 were on extended
We had 9411518 decisions of which only 0.480231 were on extended
We had 9424005 decisions of which only 0.480125 were on extended
We had 9436355 decisions of which only 0.479624 were on extended
We had 9449234 decisions of which only 0.479256 were on extended
We had 9461930 decisions of which only 0.478644 were on extended
We had 9475169 decisions of which only 0.478018 were on extended
We had 9487937 decisions of which only 0.477554 were on extended
We had 9500865 decisions of which only 0.476957 were on extended
We had 9514172 decisions of which only 0.4763 were on extended
We had 9527946 decisions of which only 0.475905 were on extended
We had 9541955 decisions of which only 0.475353 were on extended
We had 9555302 decisions of which only 0.474689 were on extended
We had 9568308 decisions of which only 0.474055 were on extended
We had 9581711 decisions of which only 0.473423 were on extended
We had 9594828 decisions of which only 0.472807 were on extended
We had 9607629 decisions of which only 0.472177 were on extended
We had 9619019 decisions of which only 0.47194 were on extended
We had 9630464 decisions of which only 0.47168 were on extended
We had 9641810 decisions of which only 0.471312 were on extended
We had 9653323 decisions of which only 0.471268 were on extended
We had 9666538 decisions of which only 0.47081 were on extended
We had 9679668 decisions of which only 0.470181 were on extended
We had 9691674 decisions of which only 0.470559 were on extended
We had 9704788 decisions of which only 0.470026 were on extended
We had 9717271 decisions of which only 0.46972 were on extended
We had 9729196 decisions of which only 0.469268 were on extended
We had 9742470 decisions of which only 0.468741 were on extended
We had 9755043 decisions of which only 0.468465 were on extended
We had 9768361 decisions of which only 0.46796 were on extended
We had 9779816 decisions of which only 0.467545 were on extended
We had 9791744 decisions of which only 0.466975 were on extended
c Switched to VSIDS.
We had 9805066 decisions of which only 0.466361 were on extended
We had 9819431 decisions of which only 0.466015 were on extended
We had 9832891 decisions of which only 0.46554 were on extended
We had 9848114 decisions of which only 0.464871 were on extended
We had 9862141 decisions of which only 0.46421 were on extended
We had 9877022 decisions of which only 0.463632 were on extended
We had 9891918 decisions of which only 0.462994 were on extended
We had 9905277 decisions of which only 0.462501 were on extended
We had 9920199 decisions of which only 0.462017 were on extended
We had 9934978 decisions of which only 0.46136 were on extended
We had 9950356 decisions of which only 0.460838 were on extended
We had 9963666 decisions of which only 0.460433 were on extended
We had 9977259 decisions of which only 0.459816 were on extended
We had 9990680 decisions of which only 0.459348 were on extended
We had 10004546 decisions of which only 0.458861 were on extended
We had 10017205 decisions of which only 0.458301 were on extended
We had 10030373 decisions of which only 0.45774 were on extended
We had 10043045 decisions of which only 0.457212 were on extended
We had 10057945 decisions of which only 0.456574 were on extended
We had 10071323 decisions of which only 0.456018 were on extended
We had 10084214 decisions of which only 0.455474 were on extended
We had 10099114 decisions of which only 0.45508 were on extended
We had 10114033 decisions of which only 0.454566 were on extended
We had 10128529 decisions of which only 0.454024 were on extended
We had 10141558 decisions of which only 0.453461 were on extended
We had 10154669 decisions of which only 0.452935 were on extended
We had 10168350 decisions of which only 0.452345 were on extended
We had 10180310 decisions of which only 0.451862 were on extended
We had 10193294 decisions of which only 0.451336 were on extended
We had 10206270 decisions of which only 0.450772 were on extended
We had 10218999 decisions of which only 0.450357 were on extended
We had 10231838 decisions of which only 0.44987 were on extended
We had 10245392 decisions of which only 0.449422 were on extended
c Switched to LRB.
We had 10258576 decisions of which only 0.45093 were on extended
We had 10270479 decisions of which only 0.450407 were on extended
We had 10282558 decisions of which only 0.449908 were on extended
We had 10294036 decisions of which only 0.44959 were on extended
We had 10306026 decisions of which only 0.449543 were on extended
We had 10317802 decisions of which only 0.449049 were on extended
We had 10329877 decisions of which only 0.448631 were on extended
We had 10341713 decisions of which only 0.448195 were on extended
We had 10353367 decisions of which only 0.447816 were on extended
We had 10365056 decisions of which only 0.447745 were on extended
We had 10377139 decisions of which only 0.447445 were on extended
We had 10389791 decisions of which only 0.447304 were on extended
We had 10402913 decisions of which only 0.446856 were on extended
We had 10414475 decisions of which only 0.446484 were on extended
We had 10425650 decisions of which only 0.446006 were on extended
We had 10437042 decisions of which only 0.445519 were on extended
We had 10448493 decisions of which only 0.445088 were on extended
We had 10459848 decisions of which only 0.444662 were on extended
We had 10471132 decisions of which only 0.444727 were on extended
We had 10482389 decisions of which only 0.444269 were on extended
We had 10493511 decisions of which only 0.443798 were on extended
We had 10504708 decisions of which only 0.443325 were on extended
We had 10515905 decisions of which only 0.442948 were on extended
We had 10527128 decisions of which only 0.442504 were on extended
We had 10538369 decisions of which only 0.442165 were on extended
We had 10550585 decisions of which only 0.441795 were on extended
We had 10562645 decisions of which only 0.441291 were on extended
We had 10574938 decisions of which only 0.440778 were on extended
We had 10587417 decisions of which only 0.440258 were on extended
We had 10599598 decisions of which only 0.439753 were on extended
We had 10611495 decisions of which only 0.43926 were on extended
We had 10623072 decisions of which only 0.438903 were on extended
We had 10635557 decisions of which only 0.438388 were on extended
We had 10648008 decisions of which only 0.437894 were on extended
We had 10659953 decisions of which only 0.437478 were on extended
We had 10671532 decisions of which only 0.437004 were on extended
We had 10683169 decisions of which only 0.436528 were on extended
We had 10694540 decisions of which only 0.436064 were on extended
c ===============================================================================
restarts                  : 11799
conflicts                 : 4520681        (2145 /sec)
decisions                 : 10695259       (0.00 % random) (5074 /sec)
propagations              : 2986266023     (1416734 /sec)
conflict literals         : 171125323      (53.39 % deleted)

conflicts w/ DIP found    : 564769         (12.49 % of conflicts)
conflicts w/ dangerous DIP: 0              (0.00 % of conflicts)
conflicts w/ DIP-learning : 2948           (0.07 % of conflicts)
decisions on ext vars     : 46635          (0.44 % of decisions)
total ext vars            : 440         
tried delete ext vars     : 3           
deleted ext vars          : 3           
max ext vars              : 437         

Memory used               : 313.00 MB
CPU time                  : 2107.85 s
DIP computation time      : 6.71538 s (0.32 % of total time)
ER_sel time               : 6.23278 s
ER_add time               : 0.002177 s
ER_delC time              : 0 s
ER_delV time              : 0.00081 s
ER_sub time               : 0.948978 s
ER_stat time              : 0 s

UNSATISFIABLE
